Results/Experiment 1 Results/New Benchmark/RES_40/output_p1_0.25_p2_0.00_n_40_02.txt
solutions: 0 nodes: 0  modelTime: 141  solveTime: 13  totalTime: 158  modelSize: 7857  readTime: 4 matchingSize: 0
