Results/Experiment 2 Results/New Benchmark/output_p1_0.25_p2_0.00_n_40_02.lp
clingo version 5.4.0
Reading from tempSRTISolver.lp ...
Solving...
Answer: 1
matched(4,2) matched(2,4) matched(3,5) matched(6,7) matched(1,8) matched(11,12) matched(18,14) matched(19,15) matched(17,16) matched(15,19) matched(13,20) matched(22,23) matched(28,25) matched(24,26) matched(21,27) matched(27,21) matched(32,29) matched(35,34) matched(40,37) matched(38,39) matched(37,40) matched(5,3) matched(7,6) matched(8,1) matched(9,10) matched(10,9) matched(23,22) matched(25,28) matched(30,31) matched(29,32) matched(34,35) matched(33,36) matched(36,33) matched(12,11) matched(14,18) matched(26,24) matched(31,30) matched(39,38) matched(16,17) matched(20,13)
Optimization: 424
Answer: 2
matched(4,2) matched(2,4) matched(3,5) matched(6,7) matched(1,8) matched(9,12) matched(18,14) matched(19,15) matched(17,16) matched(15,19) matched(13,20) matched(22,23) matched(28,25) matched(24,26) matched(21,27) matched(27,21) matched(32,29) matched(35,34) matched(40,37) matched(38,39) matched(37,40) matched(5,3) matched(7,6) matched(8,1) matched(11,10) matched(12,9) matched(23,22) matched(25,28) matched(30,31) matched(29,32) matched(34,35) matched(33,36) matched(36,33) matched(10,11) matched(14,18) matched(26,24) matched(31,30) matched(39,38) matched(16,17) matched(20,13)
Optimization: 421
Answer: 3
matched(4,2) matched(2,4) matched(3,5) matched(6,7) matched(1,8) matched(9,12) matched(18,14) matched(19,15) matched(13,16) matched(15,19) matched(17,20) matched(22,23) matched(28,25) matched(24,26) matched(21,27) matched(27,21) matched(32,29) matched(35,34) matched(40,37) matched(38,39) matched(37,40) matched(5,3) matched(7,6) matched(8,1) matched(11,10) matched(12,9) matched(23,22) matched(25,28) matched(30,31) matched(29,32) matched(34,35) matched(33,36) matched(36,33) matched(10,11) matched(14,18) matched(26,24) matched(31,30) matched(39,38) matched(20,17) matched(16,13)
Optimization: 415
Answer: 4
matched(4,2) matched(2,4) matched(3,5) matched(6,7) matched(1,8) matched(9,12) matched(15,14) matched(14,15) matched(13,16) matched(18,19) matched(17,20) matched(27,23) matched(24,25) matched(22,26) matched(23,27) matched(28,21) matched(30,29) matched(38,34) matched(36,37) matched(35,39) matched(33,40) matched(5,3) matched(7,6) matched(8,1) matched(11,10) matched(12,9) matched(26,22) matched(21,28) matched(32,31) matched(31,32) matched(39,35) matched(37,36) matched(40,33) matched(10,11) matched(19,18) matched(25,24) matched(29,30) matched(34,38) matched(20,17) matched(16,13)
Optimization: 413
Answer: 5
matched(4,2) matched(2,4) matched(3,5) matched(6,7) matched(1,8) matched(9,12) matched(16,14) matched(17,15) matched(14,16) matched(18,19) matched(13,20) matched(27,23) matched(24,25) matched(22,26) matched(23,27) matched(28,21) matched(32,29) matched(38,34) matched(36,37) matched(35,39) matched(33,40) matched(5,3) matched(7,6) matched(8,1) matched(11,10) matched(12,9) matched(26,22) matched(21,28) matched(30,31) matched(29,32) matched(39,35) matched(37,36) matched(40,33) matched(10,11) matched(19,18) matched(25,24) matched(31,30) matched(34,38) matched(15,17) matched(20,13)
Optimization: 401
Answer: 6
matched(4,2) matched(2,4) matched(3,5) matched(6,7) matched(1,8) matched(11,12) matched(15,14) matched(14,15) matched(13,16) matched(18,19) matched(17,20) matched(27,23) matched(24,25) matched(22,26) matched(23,27) matched(28,21) matched(30,29) matched(36,34) matched(35,37) matched(38,39) matched(33,40) matched(5,3) matched(7,6) matched(8,1) matched(9,10) matched(10,9) matched(26,22) matched(21,28) matched(32,31) matched(31,32) matched(37,35) matched(34,36) matched(40,33) matched(12,11) matched(19,18) matched(25,24) matched(29,30) matched(39,38) matched(20,17) matched(16,13)
Optimization: 399
Answer: 7
matched(4,2) matched(2,4) matched(3,5) matched(6,7) matched(1,8) matched(9,12) matched(15,14) matched(14,15) matched(13,16) matched(18,19) matched(17,20) matched(27,23) matched(24,25) matched(22,26) matched(23,27) matched(28,21) matched(30,29) matched(36,34) matched(35,37) matched(38,39) matched(33,40) matched(5,3) matched(7,6) matched(8,1) matched(11,10) matched(12,9) matched(26,22) matched(21,28) matched(32,31) matched(31,32) matched(37,35) matched(34,36) matched(40,33) matched(10,11) matched(19,18) matched(25,24) matched(29,30) matched(39,38) matched(20,17) matched(16,13)
Optimization: 396
Answer: 8
matched(4,2) matched(2,4) matched(3,5) matched(6,7) matched(1,8) matched(11,12) matched(16,14) matched(17,15) matched(14,16) matched(18,19) matched(13,20) matched(27,23) matched(28,25) matched(22,26) matched(23,27) matched(24,21) matched(32,29) matched(36,34) matched(35,37) matched(38,39) matched(33,40) matched(5,3) matched(7,6) matched(8,1) matched(9,10) matched(10,9) matched(26,22) matched(25,28) matched(30,31) matched(29,32) matched(37,35) matched(34,36) matched(40,33) matched(12,11) matched(19,18) matched(21,24) matched(31,30) matched(39,38) matched(15,17) matched(20,13)
Optimization: 394
Answer: 9
matched(4,2) matched(2,4) matched(3,5) matched(6,7) matched(1,8) matched(9,12) matched(16,14) matched(17,15) matched(14,16) matched(18,19) matched(13,20) matched(27,23) matched(28,25) matched(22,26) matched(23,27) matched(24,21) matched(32,29) matched(36,34) matched(35,37) matched(38,39) matched(33,40) matched(5,3) matched(7,6) matched(8,1) matched(11,10) matched(12,9) matched(26,22) matched(25,28) matched(30,31) matched(29,32) matched(37,35) matched(34,36) matched(40,33) matched(10,11) matched(19,18) matched(21,24) matched(31,30) matched(39,38) matched(15,17) matched(20,13)
Optimization: 391
Answer: 10
matched(3,2) matched(5,4) matched(4,5) matched(6,7) matched(1,8) matched(9,12) matched(18,14) matched(19,15) matched(13,16) matched(15,19) matched(17,20) matched(25,23) matched(23,25) matched(27,26) matched(26,27) matched(28,21) matched(30,29) matched(36,34) matched(35,37) matched(38,39) matched(33,40) matched(2,3) matched(7,6) matched(8,1) matched(11,10) matched(12,9) matched(24,22) matched(21,28) matched(32,31) matched(31,32) matched(37,35) matched(34,36) matched(40,33) matched(10,11) matched(14,18) matched(22,24) matched(29,30) matched(39,38) matched(20,17) matched(16,13)
Optimization: 390
Answer: 11
matched(3,2) matched(5,4) matched(4,5) matched(6,7) matched(1,8) matched(11,12) matched(15,14) matched(14,15) matched(18,16) matched(13,19) matched(17,20) matched(25,23) matched(23,25) matched(27,26) matched(26,27) matched(28,21) matched(32,29) matched(36,34) matched(35,37) matched(38,39) matched(33,40) matched(2,3) matched(7,6) matched(8,1) matched(9,10) matched(10,9) matched(24,22) matched(21,28) matched(30,31) matched(29,32) matched(37,35) matched(34,36) matched(40,33) matched(12,11) matched(16,18) matched(22,24) matched(31,30) matched(39,38) matched(20,17) matched(19,13)
Optimization: 385
Answer: 12
matched(3,2) matched(5,4) matched(4,5) matched(6,7) matched(1,8) matched(11,12) matched(15,14) matched(14,15) matched(13,16) matched(18,19) matched(17,20) matched(25,23) matched(23,25) matched(27,26) matched(26,27) matched(28,21) matched(32,29) matched(36,34) matched(35,37) matched(38,39) matched(33,40) matched(2,3) matched(7,6) matched(8,1) matched(9,10) matched(10,9) matched(24,22) matched(21,28) matched(30,31) matched(29,32) matched(37,35) matched(34,36) matched(40,33) matched(12,11) matched(19,18) matched(22,24) matched(31,30) matched(39,38) matched(20,17) matched(16,13)
Optimization: 378
Answer: 13
matched(4,2) matched(2,4) matched(3,5) matched(6,7) matched(1,8) matched(11,12) matched(16,14) matched(17,15) matched(14,16) matched(18,19) matched(13,20) matched(25,23) matched(23,25) matched(27,26) matched(26,27) matched(28,21) matched(32,29) matched(36,34) matched(35,37) matched(38,39) matched(33,40) matched(5,3) matched(7,6) matched(8,1) matched(9,10) matched(10,9) matched(24,22) matched(21,28) matched(30,31) matched(29,32) matched(37,35) matched(34,36) matched(40,33) matched(12,11) matched(19,18) matched(22,24) matched(31,30) matched(39,38) matched(15,17) matched(20,13)
Optimization: 375
Answer: 14
matched(4,2) matched(2,4) matched(3,5) matched(6,7) matched(1,8) matched(9,12) matched(16,14) matched(17,15) matched(14,16) matched(18,19) matched(13,20) matched(25,23) matched(23,25) matched(27,26) matched(26,27) matched(28,21) matched(32,29) matched(36,34) matched(35,37) matched(38,39) matched(33,40) matched(5,3) matched(7,6) matched(8,1) matched(11,10) matched(12,9) matched(24,22) matched(21,28) matched(30,31) matched(29,32) matched(37,35) matched(34,36) matched(40,33) matched(10,11) matched(19,18) matched(22,24) matched(31,30) matched(39,38) matched(15,17) matched(20,13)
Optimization: 372
OPTIMUM FOUND

Models       : 14
  Optimum    : yes
Optimization : 372
Calls        : 1
Time         : 0.464s (Solving: 0.09s 1st Model: 0.00s Unsat: 0.06s)
CPU Time     : 0.461s
